0 713 264
1 78 160
2 2 322
3 242 411
4 839 11
5 377 12
6 491 182
7 697 50
8 50 265
9 359 97
10 889 303
11 928 233
12 267 400
13 98 235
14 489 17
15 366 607
16 2 61
17 277 185
18 284 119
19 38 185
20 351 571